# Objective value = 165
x0,1_2 0
x0,1_3 0
x0,1_7 0
x0,1_9 0
x0,1_11 0
x0,1_13 0
x0,1_14 0
x0,1_16 0
x0,1_23 0
x0,1_27 0
x0,1_29 0
x0,1_30 0
x0,1_32 0
x0,1_36 0
x0,1_39 0
x0,1_41 0
x0,1_43 0
x0,1_50 0
x0,2_2 0
x0,2_3 0
x0,2_7 1
x0,2_9 0
x0,2_11 0
x0,2_13 0
x0,2_14 0
x0,2_16 0
x0,2_23 0
x0,2_27 0
x0,2_29 0
x0,2_30 0
x0,2_32 0
x0,2_36 0
x0,2_39 0
x0,2_41 0
x0,2_43 0
x0,2_50 0
x0,3_2 0
x0,3_3 0
x0,3_7 0
x0,3_9 1
x0,3_11 0
x0,3_13 0
x0,3_14 0
x0,3_16 0
x0,3_23 0
x0,3_27 0
x0,3_29 0
x0,3_30 0
x0,3_32 0
x0,3_36 0
x0,3_39 0
x0,3_41 0
x0,3_43 0
x0,3_50 0
x0,4_2 0
x0,4_3 0
x0,4_7 0
x0,4_9 0
x0,4_11 0
x0,4_13 0
x0,4_14 0
x0,4_16 0
x0,4_23 1
x0,4_27 0
x0,4_29 0
x0,4_30 0
x0,4_32 0
x0,4_36 0
x0,4_39 0
x0,4_41 0
x0,4_43 0
x0,4_50 0
x0,5_2 0
x0,5_3 0
x0,5_7 0
x0,5_9 0
x0,5_11 0
x0,5_13 0
x0,5_14 0
x0,5_16 0
x0,5_23 0
x0,5_27 0
x0,5_29 0
x0,5_30 0
x0,5_32 0
x0,5_36 1
x0,5_39 0
x0,5_41 0
x0,5_43 0
x0,5_50 0
x0,6_2 0
x0,6_3 0
x0,6_7 0
x0,6_9 0
x0,6_11 0
x0,6_13 0
x0,6_14 0
x0,6_16 0
x0,6_23 0
x0,6_27 0
x0,6_29 0
x0,6_30 0
x0,6_32 0
x0,6_36 0
x0,6_39 1
x0,6_41 0
x0,6_43 0
x0,6_50 0
x0,7_2 0
x0,7_3 0
x0,7_7 0
x0,7_9 0
x0,7_11 0
x0,7_13 0
x0,7_14 0
x0,7_16 0
x0,7_23 0
x0,7_27 0
x0,7_29 0
x0,7_30 0
x0,7_32 0
x0,7_36 0
x0,7_39 0
x0,7_41 0
x0,7_43 0
x0,7_50 1
x1,2_2 0
x1,2_3 0
x1,2_7 0
x1,2_9 0
x1,2_11 0
x1,2_13 0
x1,2_14 0
x1,2_16 0
x1,2_23 0
x1,2_27 0
x1,2_29 0
x1,2_30 0
x1,2_32 0
x1,2_36 0
x1,2_39 0
x1,2_41 0
x1,2_43 0
x1,2_50 0
x1,3_2 0
x1,3_3 0
x1,3_7 0
x1,3_9 0
x1,3_11 0
x1,3_13 0
x1,3_14 0
x1,3_16 0
x1,3_23 0
x1,3_27 0
x1,3_29 0
x1,3_30 0
x1,3_32 0
x1,3_36 0
x1,3_39 0
x1,3_41 0
x1,3_43 0
x1,3_50 0
x1,4_2 0
x1,4_3 0
x1,4_7 0
x1,4_9 0
x1,4_11 0
x1,4_13 0
x1,4_14 0
x1,4_16 0
x1,4_23 0
x1,4_27 0
x1,4_29 0
x1,4_30 0
x1,4_32 0
x1,4_36 0
x1,4_39 0
x1,4_41 0
x1,4_43 0
x1,4_50 0
x1,5_2 0
x1,5_3 0
x1,5_7 0
x1,5_9 0
x1,5_11 0
x1,5_13 0
x1,5_14 0
x1,5_16 0
x1,5_23 0
x1,5_27 0
x1,5_29 0
x1,5_30 0
x1,5_32 0
x1,5_36 0
x1,5_39 0
x1,5_41 0
x1,5_43 0
x1,5_50 0
x1,6_2 0
x1,6_3 0
x1,6_7 0
x1,6_9 0
x1,6_11 0
x1,6_13 0
x1,6_14 0
x1,6_16 0
x1,6_23 0
x1,6_27 0
x1,6_29 0
x1,6_30 0
x1,6_32 0
x1,6_36 0
x1,6_39 0
x1,6_41 0
x1,6_43 0
x1,6_50 0
x1,7_2 0
x1,7_3 0
x1,7_7 0
x1,7_9 0
x1,7_11 0
x1,7_13 0
x1,7_14 0
x1,7_16 0
x1,7_23 0
x1,7_27 0
x1,7_29 0
x1,7_30 0
x1,7_32 0
x1,7_36 0
x1,7_39 0
x1,7_41 0
x1,7_43 0
x1,7_50 0
x2,3_2 1
x2,3_3 0
x2,3_7 0
x2,3_9 0
x2,3_11 0
x2,3_13 0
x2,3_14 0
x2,3_16 0
x2,3_23 0
x2,3_27 0
x2,3_29 0
x2,3_30 0
x2,3_32 0
x2,3_36 0
x2,3_39 0
x2,3_41 0
x2,3_43 0
x2,3_50 0
x2,4_2 0
x2,4_3 0
x2,4_7 0
x2,4_9 0
x2,4_11 0
x2,4_13 0
x2,4_14 0
x2,4_16 1
x2,4_23 0
x2,4_27 0
x2,4_29 0
x2,4_30 0
x2,4_32 0
x2,4_36 0
x2,4_39 0
x2,4_41 0
x2,4_43 0
x2,4_50 0
x2,5_2 0
x2,5_3 0
x2,5_7 0
x2,5_9 0
x2,5_11 0
x2,5_13 0
x2,5_14 0
x2,5_16 0
x2,5_23 0
x2,5_27 0
x2,5_29 1
x2,5_30 0
x2,5_32 0
x2,5_36 0
x2,5_39 0
x2,5_41 0
x2,5_43 0
x2,5_50 0
x2,6_2 0
x2,6_3 0
x2,6_7 0
x2,6_9 0
x2,6_11 0
x2,6_13 0
x2,6_14 0
x2,6_16 0
x2,6_23 0
x2,6_27 0
x2,6_29 0
x2,6_30 0
x2,6_32 1
x2,6_36 0
x2,6_39 0
x2,6_41 0
x2,6_43 0
x2,6_50 0
x2,7_2 0
x2,7_3 0
x2,7_7 0
x2,7_9 0
x2,7_11 0
x2,7_13 0
x2,7_14 0
x2,7_16 0
x2,7_23 0
x2,7_27 0
x2,7_29 0
x2,7_30 0
x2,7_32 0
x2,7_36 0
x2,7_39 0
x2,7_41 0
x2,7_43 1
x2,7_50 0
x3,4_2 0
x3,4_3 0
x3,4_7 0
x3,4_9 0
x3,4_11 0
x3,4_13 0
x3,4_14 1
x3,4_16 0
x3,4_23 0
x3,4_27 0
x3,4_29 0
x3,4_30 0
x3,4_32 0
x3,4_36 0
x3,4_39 0
x3,4_41 0
x3,4_43 0
x3,4_50 0
x3,5_2 0
x3,5_3 0
x3,5_7 0
x3,5_9 0
x3,5_11 0
x3,5_13 0
x3,5_14 0
x3,5_16 0
x3,5_23 0
x3,5_27 1
x3,5_29 0
x3,5_30 0
x3,5_32 0
x3,5_36 0
x3,5_39 0
x3,5_41 0
x3,5_43 0
x3,5_50 0
x3,6_2 0
x3,6_3 0
x3,6_7 0
x3,6_9 0
x3,6_11 0
x3,6_13 0
x3,6_14 0
x3,6_16 0
x3,6_23 0
x3,6_27 0
x3,6_29 0
x3,6_30 1
x3,6_32 0
x3,6_36 0
x3,6_39 0
x3,6_41 0
x3,6_43 0
x3,6_50 0
x3,7_2 0
x3,7_3 0
x3,7_7 0
x3,7_9 0
x3,7_11 0
x3,7_13 0
x3,7_14 0
x3,7_16 0
x3,7_23 0
x3,7_27 0
x3,7_29 0
x3,7_30 0
x3,7_32 0
x3,7_36 0
x3,7_39 0
x3,7_41 1
x3,7_43 0
x3,7_50 0
x4,5_2 0
x4,5_3 0
x4,5_7 0
x4,5_9 0
x4,5_11 0
x4,5_13 1
x4,5_14 0
x4,5_16 0
x4,5_23 0
x4,5_27 0
x4,5_29 0
x4,5_30 0
x4,5_32 0
x4,5_36 0
x4,5_39 0
x4,5_41 0
x4,5_43 0
x4,5_50 0
x4,6_2 0
x4,6_3 0
x4,6_7 0
x4,6_9 0
x4,6_11 0
x4,6_13 0
x4,6_14 0
x4,6_16 1
x4,6_23 0
x4,6_27 0
x4,6_29 0
x4,6_30 0
x4,6_32 0
x4,6_36 0
x4,6_39 0
x4,6_41 0
x4,6_43 0
x4,6_50 0
x4,7_2 0
x4,7_3 0
x4,7_7 0
x4,7_9 0
x4,7_11 0
x4,7_13 0
x4,7_14 0
x4,7_16 0
x4,7_23 0
x4,7_27 1
x4,7_29 0
x4,7_30 0
x4,7_32 0
x4,7_36 0
x4,7_39 0
x4,7_41 0
x4,7_43 0
x4,7_50 0
x5,6_2 0
x5,6_3 1
x5,6_7 0
x5,6_9 0
x5,6_11 0
x5,6_13 0
x5,6_14 0
x5,6_16 0
x5,6_23 0
x5,6_27 0
x5,6_29 0
x5,6_30 0
x5,6_32 0
x5,6_36 0
x5,6_39 0
x5,6_41 0
x5,6_43 0
x5,6_50 0
x5,7_2 0
x5,7_3 0
x5,7_7 0
x5,7_9 0
x5,7_11 0
x5,7_13 0
x5,7_14 1
x5,7_16 0
x5,7_23 0
x5,7_27 0
x5,7_29 0
x5,7_30 0
x5,7_32 0
x5,7_36 0
x5,7_39 0
x5,7_41 0
x5,7_43 0
x5,7_50 0
x6,7_2 0
x6,7_3 0
x6,7_7 0
x6,7_9 0
x6,7_11 1
x6,7_13 0
x6,7_14 0
x6,7_16 0
x6,7_23 0
x6,7_27 0
x6,7_29 0
x6,7_30 0
x6,7_32 0
x6,7_36 0
x6,7_39 0
x6,7_41 0
x6,7_43 0
x6,7_50 0
p0 0
p1 1
p2 7
p3 9
p4 23
p5 36
p6 39
p7 50
